(set-logic QF_S)
(declare-fun M7_10 () String)
(declare-fun T17_10 () String)
(declare-fun M10_10 () String)
(declare-fun T4_35 () String)
(declare-fun P1_10 () String)
(declare-fun P17_10 () String)
(declare-fun P10_10 () String)
(declare-fun PCTEMP_LHS_4_idx_18 () String)
(declare-fun P0_10 () String)
(declare-fun PCTEMP_LHS_4_idx_15 () String)
(declare-fun PCTEMP_LHS_4_idx_14 () String)
(declare-fun PCTEMP_LHS_4_idx_17 () String)
(declare-fun PCTEMP_LHS_4_idx_16 () String)
(declare-fun PCTEMP_LHS_4_idx_11 () String)
(declare-fun PCTEMP_LHS_4_idx_10 () String)
(declare-fun PCTEMP_LHS_4_idx_13 () String)
(declare-fun PCTEMP_LHS_4_idx_12 () String)
(declare-fun P5_10 () String)
(declare-fun P7_10 () String)
(declare-fun M4_10 () String)
(declare-fun M3_10 () String)
(declare-fun T13_10 () String)
(declare-fun T14_10 () String)
(declare-fun T3_10 () String)
(declare-fun PCTEMP_LHS_11 () String)
(declare-fun T3_16 () String)
(declare-fun PCTEMP_LHS_13 () String)
(declare-fun M0_10 () String)
(declare-fun P12_10 () String)
(declare-fun T10_10 () String)
(declare-fun T2_8 () String)
(declare-fun M14_10 () String)
(declare-fun T15_10 () String)
(declare-fun M5_10 () String)
(declare-fun T8_10 () String)
(declare-fun T0_35 () String)
(declare-fun T5_2 () String)
(declare-fun T5_10 () String)
(declare-fun T5_16 () String)
(declare-fun PCTEMP_LHS_8 () String)
(declare-fun PCTEMP_LHS_9 () String)
(declare-fun PCTEMP_LHS_6 () String)
(declare-fun P8_10 () String)
(declare-fun PCTEMP_LHS_4 () String)
(declare-fun PCTEMP_LHS_3 () String)
(declare-fun M12_10 () String)
(declare-fun P15_10 () String)
(declare-fun M17_10 () String)
(declare-fun P14_10 () String)
(declare-fun T_1a () String)
(declare-fun T_1c () String)
(declare-fun T_f () String)
(declare-fun M9_10 () String)
(declare-fun T1_8 () String)
(declare-fun T_d () String)
(declare-fun T1_4 () String)
(declare-fun T1_2 () String)
(declare-fun M11_10 () String)
(declare-fun T3_2 () String)
(declare-fun P13_10 () String)
(declare-fun T4_2 () String)
(declare-fun T3_8 () String)
(declare-fun T1_16 () String)
(declare-fun T_16 () String)
(declare-fun T1_10 () String)
(declare-fun M13_10 () String)
(declare-fun T5_35 () String)
(declare-fun T3_40 () String)
(declare-fun T7_10 () String)
(declare-fun T3_44 () String)
(declare-fun P2_10 () String)
(declare-fun T2_44 () String)
(declare-fun T2_40 () String)
(declare-fun T9_10 () String)
(declare-fun P6_10 () String)
(declare-fun T1_21 () String)
(declare-fun T1_25 () String)
(declare-fun T0_4 () String)
(declare-fun T11_10 () String)
(declare-fun var_0xINPUT_301 () String)
(declare-fun M1_10 () String)
(declare-fun T1_35 () String)
(declare-fun T6_10 () String)
(declare-fun T2_2 () String)
(declare-fun M15_10 () String)
(declare-fun P4_10 () String)
(declare-fun T_9 () String)
(declare-fun T2_35 () String)
(declare-fun PCTEMP_LHS_14 () String)
(declare-fun P9_10 () String)
(declare-fun T12_10 () String)
(declare-fun M2_10 () String)
(declare-fun M8_10 () String)
(declare-fun T18_10 () String)
(declare-fun PCTEMP_LHS_7 () String)
(declare-fun T3_21 () String)
(declare-fun T4_10 () String)
(declare-fun T3_25 () String)
(declare-fun T4_16 () String)
(declare-fun T1_40 () String)
(declare-fun T1_44 () String)
(declare-fun T0_2 () String)
(declare-fun PCTEMP_LHS_12 () String)
(declare-fun P11_10 () String)
(declare-fun T2_21 () String)
(declare-fun T2_25 () String)
(declare-fun PCTEMP_LHS_4_idx_9 () String)
(declare-fun PCTEMP_LHS_4_idx_8 () String)
(declare-fun PCTEMP_LHS_4_idx_1 () String)
(declare-fun PCTEMP_LHS_4_idx_0 () String)
(declare-fun PCTEMP_LHS_4_idx_3 () String)
(declare-fun PCTEMP_LHS_4_idx_2 () String)
(declare-fun PCTEMP_LHS_4_idx_5 () String)
(declare-fun PCTEMP_LHS_4_idx_4 () String)
(declare-fun PCTEMP_LHS_4_idx_7 () String)
(declare-fun PCTEMP_LHS_4_idx_6 () String)
(declare-fun M16_10 () String)
(declare-fun T3_35 () String)
(declare-fun P16_10 () String)
(declare-fun T16_10 () String)
(declare-fun M6_10 () String)
(declare-fun P3_10 () String)
(declare-fun T0_16 () String)
(declare-fun T0_10 () String)
(declare-fun T2_16 () String)
(declare-fun T2_10 () String)
(assert (and (= var_0xINPUT_301 (concat T0_2 T1_2)) (= (len T0_2) 0) (= T1_2 (concat T2_2 T3_2)) (= T2_2 (concat T4_2 T5_2)) (= T5_2 "?") (not (in T4_2 /\?/)) (= var_0xINPUT_301 (concat T0_4 T1_4)) (= (len T0_4) 0) (not (in T1_4 /#/)) (= var_0xINPUT_301 (concat T1_8 T2_8)) (= T2_8 (concat PCTEMP_LHS_3 T3_8)) (= T18_10 PCTEMP_LHS_4_idx_18) (= T0_10 PCTEMP_LHS_3) (= M17_10 "&") (not (in PCTEMP_LHS_4_idx_17 /&/)) (= P17_10 (concat PCTEMP_LHS_4_idx_17 M17_10)) (= T17_10 (concat P17_10 T18_10)) (= M16_10 "&") (not (in PCTEMP_LHS_4_idx_16 /&/)) (= P16_10 (concat PCTEMP_LHS_4_idx_16 M16_10)) (= T16_10 (concat P16_10 T17_10)) (= M15_10 "&") (not (in PCTEMP_LHS_4_idx_15 /&/)) (= P15_10 (concat PCTEMP_LHS_4_idx_15 M15_10)) (= T15_10 (concat P15_10 T16_10)) (= M14_10 "&") (not (in PCTEMP_LHS_4_idx_14 /&/)) (= P14_10 (concat PCTEMP_LHS_4_idx_14 M14_10)) (= T14_10 (concat P14_10 T15_10)) (= M13_10 "&") (not (in PCTEMP_LHS_4_idx_13 /&/)) (= P13_10 (concat PCTEMP_LHS_4_idx_13 M13_10)) (= T13_10 (concat P13_10 T14_10)) (= M12_10 "&") (not (in PCTEMP_LHS_4_idx_12 /&/)) (= P12_10 (concat PCTEMP_LHS_4_idx_12 M12_10)) (= T12_10 (concat P12_10 T13_10)) (= M11_10 "&") (not (in PCTEMP_LHS_4_idx_11 /&/)) (= P11_10 (concat PCTEMP_LHS_4_idx_11 M11_10)) (= T11_10 (concat P11_10 T12_10)) (= M10_10 "&") (not (in PCTEMP_LHS_4_idx_10 /&/)) (= P10_10 (concat PCTEMP_LHS_4_idx_10 M10_10)) (= T10_10 (concat P10_10 T11_10)) (= M9_10 "&") (not (in PCTEMP_LHS_4_idx_9 /&/)) (= P9_10 (concat PCTEMP_LHS_4_idx_9 M9_10)) (= T9_10 (concat P9_10 T10_10)) (= M8_10 "&") (not (in PCTEMP_LHS_4_idx_8 /&/)) (= P8_10 (concat PCTEMP_LHS_4_idx_8 M8_10)) (= T8_10 (concat P8_10 T9_10)) (= M7_10 "&") (not (in PCTEMP_LHS_4_idx_7 /&/)) (= P7_10 (concat PCTEMP_LHS_4_idx_7 M7_10)) (= T7_10 (concat P7_10 T8_10)) (= M6_10 "&") (not (in PCTEMP_LHS_4_idx_6 /&/)) (= P6_10 (concat PCTEMP_LHS_4_idx_6 M6_10)) (= T6_10 (concat P6_10 T7_10)) (= M5_10 "&") (not (in PCTEMP_LHS_4_idx_5 /&/)) (= P5_10 (concat PCTEMP_LHS_4_idx_5 M5_10)) (= T5_10 (concat P5_10 T6_10)) (= M4_10 "&") (not (in PCTEMP_LHS_4_idx_4 /&/)) (= P4_10 (concat PCTEMP_LHS_4_idx_4 M4_10)) (= T4_10 (concat P4_10 T5_10)) (= M3_10 "&") (not (in PCTEMP_LHS_4_idx_3 /&/)) (= P3_10 (concat PCTEMP_LHS_4_idx_3 M3_10)) (= T3_10 (concat P3_10 T4_10)) (= M2_10 "&") (not (in PCTEMP_LHS_4_idx_2 /&/)) (= P2_10 (concat PCTEMP_LHS_4_idx_2 M2_10)) (= T2_10 (concat P2_10 T3_10)) (= M1_10 "&") (not (in PCTEMP_LHS_4_idx_1 /&/)) (= P1_10 (concat PCTEMP_LHS_4_idx_1 M1_10)) (= T1_10 (concat P1_10 T2_10)) (= M0_10 "&") (not (in PCTEMP_LHS_4_idx_0 /&/)) (= P0_10 (concat PCTEMP_LHS_4_idx_0 M0_10)) (= T0_10 (concat P0_10 T1_10)) (= T_9 PCTEMP_LHS_4_idx_0) (= T_9 (concat T0_16 T1_16)) (= (len T0_16) 0) (= T1_16 (concat T2_16 T3_16)) (= T2_16 (concat T4_16 T5_16)) (= T5_16 "=") (not (in T4_16 /=/)) (= T_d PCTEMP_LHS_4_idx_0) (= T_d (concat T1_21 T2_21)) (= T2_21 (concat PCTEMP_LHS_6 T3_21)) (= (len T1_21) 0) (= T_f PCTEMP_LHS_4_idx_0) (= T_f (concat T1_25 T2_25)) (= T2_25 (concat PCTEMP_LHS_7 T3_25)) (not (in PCTEMP_LHS_8 /\+/)) (= PCTEMP_LHS_8 PCTEMP_LHS_7) (= PCTEMP_LHS_9 PCTEMP_LHS_8) (not (in PCTEMP_LHS_9 /%/)) (= T_16 PCTEMP_LHS_4_idx_1) (= T_16 (concat T0_35 T1_35)) (= (len T0_35) 0) (= T1_35 (concat T2_35 T3_35)) (= T2_35 (concat T4_35 T5_35)) (= T5_35 "=") (not (in T4_35 /=/)) (= T_1a PCTEMP_LHS_4_idx_1) (= T_1a (concat T1_40 T2_40)) (= T2_40 (concat PCTEMP_LHS_11 T3_40)) (= (len T1_40) 0) (= T_1c PCTEMP_LHS_4_idx_1) (= T_1c (concat T1_44 T2_44)) (= T2_44 (concat PCTEMP_LHS_12 T3_44)) (not (in PCTEMP_LHS_13 /\+/)) (= PCTEMP_LHS_13 PCTEMP_LHS_12) (= PCTEMP_LHS_14 PCTEMP_LHS_13) (not (in PCTEMP_LHS_14 /%/)) (>= (len var_0xINPUT_301) 1) (>= (len T1_44) 1) (>= (len T_f) 1) (>= (len T_1c) 1) (>= (len T1_8) 1) (>= (len T1_25) 1)))
(check-sat var_0xINPUT_301)